
<<< setup


<<< generate

Version identifier: 12.10.0.0 | 2019-11-26 | 843d4de2ae
CPXPARAM_TimeLimit                               1200
Tried aggregator 3 times.
MIP Presolve eliminated 5153321 rows and 2920756 columns.
MIP Presolve modified 419732 coefficients.
Aggregator did 708 substitutions.
Reduced MIP has 89021 rows, 90086 columns, and 574893 nonzeros.
Reduced MIP has 90036 binaries, 0 generals, 0 SOSs, and 0 indicators.
Presolve time = 7.28 sec. (4642.27 ticks)
Found incumbent of value 0.000000 after 11.58 sec. (6243.45 ticks)
Probing fixed 2949 vars, tightened 0 bounds.
Probing time = 34.86 sec. (7096.89 ticks)
Tried aggregator 1 time.
Detecting symmetries...
MIP Presolve eliminated 2949 rows and 2949 columns.
Reduced MIP has 86072 rows, 87137 columns, and 554840 nonzeros.
Reduced MIP has 87087 binaries, 0 generals, 0 SOSs, and 0 indicators.
Presolve time = 0.69 sec. (333.32 ticks)
Probing fixed 335 vars, tightened 0 bounds.
Probing time = 10.14 sec. (2244.99 ticks)
Clique table members: 308529.
MIP emphasis: balance optimality and feasibility.
MIP search method: dynamic search.
Parallel mode: deterministic, using up to 4 threads.
Root relaxation solution time = 4.05 sec. (2480.45 ticks)

        Nodes                                         Cuts/
   Node  Left     Objective  IInf  Best Integer    Best Bound    ItCnt     Gap

*     0+    0                            0.0000   116570.0000              --- 
      0     0    62007.0000   476        0.0000    62007.0000     7601     --- 
*     0+    0                        15930.0000    62007.0000           289.25%
      0     0    62007.0000   476    15930.0000       Cuts: 6     8423  289.25%
      0     0    62007.0000   476    15930.0000    Cuts: 3160    14260  289.25%
      0     0    62007.0000   476    15930.0000     Cuts: 471    14658  289.25%
*     0+    0                        20098.0000    62007.0000           208.52%
*     0+    0                        20586.0000    62007.0000           201.21%
*     0+    0                        22892.0000    62007.0000           170.87%
      0     0    62007.0000   476    22892.0000    Cuts: 6226    21690  170.87%
Heuristic still looking.
Detecting symmetries...
      0     2    62007.0000   171    22892.0000    62007.0000    21690  170.87%
Elapsed time = 288.76 sec. (137723.53 ticks, tree = 0.02 MB, solutions = 5)
      1     3    62007.0000   393    22892.0000    62007.0000    34074  170.87%
      2     4    62007.0000   291    22892.0000    62007.0000    41895  170.87%
      3     5    62007.0000   638    22892.0000    62007.0000    54896  170.87%
      4     6    62007.0000   676    22892.0000    62007.0000    57084  170.87%
      5     5    62007.0000   290    22892.0000    62007.0000    42704  170.87%
      6     3    62007.0000   437    22892.0000    62007.0000    44597  170.87%
      8     9    62007.0000   323    22892.0000    62007.0000   102859  170.87%
      9     8    62007.0000   340    22892.0000    62007.0000    98757  170.87%
     10     7    62007.0000   361    22892.0000    62007.0000    78175  170.87%
     11    10    62007.0000   316    22892.0000    62007.0000   147234  170.87%
Elapsed time = 477.80 sec. (187849.71 ticks, tree = 0.09 MB, solutions = 5)
     12    13    62007.0000   352    22892.0000    62007.0000   239378  170.87%
     14    11    62007.0000   353    22892.0000    62007.0000   175331  170.87%
     16    10    62007.0000   650    22892.0000    62007.0000   147549  170.87%
     17    15    62007.0000   305    22892.0000    62007.0000   253556  170.87%
     18    12    62007.0000   497    22892.0000    62007.0000   191197  170.87%
     19    14    62007.0000   318    22892.0000    62007.0000   295669  170.87%
     21    17    62007.0000   301    22892.0000    62007.0000   361929  170.87%
     26    22    62007.0000   304    22892.0000    62007.0000   430151  170.87%
     30    24    62007.0000   280    22892.0000    62007.0000   433158  170.87%
     33    27    62007.0000   299    22892.0000    62007.0000   426026  170.87%
Elapsed time = 706.22 sec. (249338.06 ticks, tree = 0.54 MB, solutions = 5)
     34    28    62007.0000   296    22892.0000    62007.0000   427274  170.87%
     36    26    62007.0000   265    22892.0000    62007.0000   434384  170.87%
     38    27    62007.0000   252    22892.0000    62007.0000   436647  170.87%
     40    32    62007.0000   293    22892.0000    62007.0000   436174  170.87%
     41    33    62007.0000   355    22892.0000    62007.0000   439794  170.87%
     42    34    62007.0000   286    22892.0000    62007.0000   441075  170.87%
     43    28    62007.0000   295    22892.0000    62007.0000   445396  170.87%
     44    44    62007.0000   257    22892.0000    62007.0000   476041  170.87%
     45    19    62007.0000   304    22892.0000    62007.0000   385207  170.87%
     46    20    62007.0000   360    22892.0000    62007.0000   407630  170.87%
Elapsed time = 796.97 sec. (274762.05 ticks, tree = 0.32 MB, solutions = 5)
     47    45    62007.0000   424    22892.0000    62007.0000   487746  170.87%
     49    36    62007.0000   291    22892.0000    62007.0000   470889  170.87%
     51    46    62007.0000   272    22892.0000    62007.0000   516491  170.87%
     52    46    62007.0000   333    22892.0000    62007.0000   520380  170.87%
     54    51    62007.0000   301    22892.0000    62007.0000   550556  170.87%
     56    48    62007.0000   323    22892.0000    62007.0000   543953  170.87%
     58    47    62007.0000   241    22892.0000    62007.0000   532619  170.87%
     60    49    62007.0000   542    22892.0000    62007.0000   554429  170.87%
     62    50    62007.0000   314    22892.0000    62007.0000   562017  170.87%
     64    53    62007.0000   438    22892.0000    62007.0000   570266  170.87%
Elapsed time = 875.23 sec. (305039.06 ticks, tree = 1.87 MB, solutions = 5)
     65    58    62007.0000   417    22892.0000    62007.0000   623336  170.87%
     68    60    62007.0000   298    22892.0000    62007.0000   624707  170.87%
     69    55    62007.0000   276    22892.0000    62007.0000   577768  170.87%
     71    62    62007.0000   296    22892.0000    62007.0000   631432  170.87%
     72    66    62007.0000   301    22892.0000    62007.0000   666928  170.87%
     74    55    62007.0000   437    22892.0000    62007.0000   592540  170.87%
     75    56    62007.0000   234    22892.0000    62007.0000   593592  170.87%
     80    69    62007.0000   329    22892.0000    62007.0000   675514  170.87%
     81    70    62007.0000   276    22892.0000    62007.0000   677484  170.87%
     82    69    62007.0000   231    22892.0000    62007.0000   686318  170.87%
Elapsed time = 920.22 sec. (322178.15 ticks, tree = 4.27 MB, solutions = 5)
     84    65    62007.0000   612    22892.0000    62007.0000   647739  170.87%
     88    73    62007.0000   601    22892.0000    62007.0000   688606  170.87%
     90    79    62007.0000   562    22892.0000    62007.0000   725473  170.87%
     91    80    62007.0000   388    22892.0000    62007.0000   729428  170.87%
     93    81    62007.0000   301    22892.0000    62007.0000   736654  170.87%
     94    88    62007.0000   265    22892.0000    62007.0000   746710  170.87%
     95    89    62007.0000   237    22892.0000    62007.0000   747478  170.87%
     97    70    62007.0000   228    22892.0000    62007.0000   707684  170.87%
     98    90    62007.0000   214    22892.0000    62007.0000   754847  170.87%
    100    98    62007.0000   269    22892.0000    62007.0000   829017  170.87%
Elapsed time = 1031.73 sec. (361789.99 ticks, tree = 11.64 MB, solutions = 5)
    101    93    62007.0000   499    22892.0000    62007.0000   782714  170.87%
    104   100    62007.0000   260    22892.0000    62007.0000   834841  170.87%
    105    95    62007.0000   238    22892.0000    62007.0000   790209  170.87%
    111   102    62007.0000   197    22892.0000    62007.0000   836404  170.87%
    112    94    62007.0000   222    22892.0000    62007.0000   815215  170.87%
    114   102    62007.0000   248    22892.0000    62007.0000   841631  170.87%
    116   102    62007.0000   278    22892.0000    62007.0000   844092  170.87%
    118   100    62007.0000   239    22892.0000    62007.0000   853416  170.87%
    120   103    62007.0000   240    22892.0000    62007.0000   850544  170.87%
    121   103    62007.0000   207    22892.0000    62007.0000   853602  170.87%
Elapsed time = 1084.06 sec. (379520.67 ticks, tree = 11.98 MB, solutions = 5)
    122   102    infeasible          22892.0000    62007.0000   856595  170.87%
    123    95    62007.0000   303    22892.0000    62007.0000   822700  170.87%
    124   101    62007.0000   198    22892.0000    62007.0000   859031  170.87%
    125   103    62007.0000   285    22892.0000    62007.0000   861372  170.87%
    126   107    62007.0000   256    22892.0000    62007.0000   899365  170.87%
    128   108    62007.0000   228    22892.0000    62007.0000   902024  170.87%
    131   103    62007.0000   231    22892.0000    62007.0000   868539  170.87%
    133   104    62007.0000   212    22892.0000    62007.0000   876880  170.87%
    134   107    62007.0000   226    22892.0000    62007.0000   903109  170.87%
    135   110    62007.0000   308    22892.0000    62007.0000   928516  170.87%
Elapsed time = 1159.08 sec. (401246.43 ticks, tree = 12.68 MB, solutions = 5)
    137   108    62007.0000   210    22892.0000    62007.0000   910607  170.87%
    139   113    62007.0000   237    22892.0000    62007.0000   934293  170.87%
    140   105    62007.0000   238    22892.0000    62007.0000   887183  170.87%
    141   112    62007.0000   382    22892.0000    62007.0000   946045  170.87%

Cover cuts applied:  1
Implied bound cuts applied:  70
Flow cuts applied:  8
Mixed integer rounding cuts applied:  658

Root node processing (before b&c):
  Real time             =  284.61 sec. (136253.61 ticks)
Parallel b&c, 4 threads:
  Real time             =  916.05 sec. (290658.24 ticks)
  Sync time (average)   =  139.06 sec.
  Wait time (average)   =    0.00 sec.
                          ------------
Total (root+branch&cut) = 1200.66 sec. (426911.86 ticks)

<<< solve


OBJECTIVE: 22892

<<< post process


<<< done

